\* Problem: Unknown *\

Maximize
 obj: + xp_0_0 + xp_1_0 + xp_1_1 + xp_2_0 + xp_2_1 + xp_3_0 + xp_3_1
 + xp_4_0 + xp_4_1 + xp_5_0 + xp_6_0 + xp_7_0 + xp_8_0 + xp_9_0 + xp_9_1
 + xp_10_0 + xp_11_0 + xp_11_1 + xp_12_0 + xp_12_1 + xp_13_0 + xp_13_1
 + xp_13_2 + xp_14_0 + xp_14_1 + xp_15_0 + xp_16_0 + xp_17_0 + xp_17_1
 + xp_18_0 + xp_18_1 + xp_18_2 + xp_19_0 + xp_19_1 + xp_20_0 + xp_21_0
 + xp_22_0 + xp_22_1 + xp_23_0 + xp_24_0 + xp_24_1 + xp_24_2 + xp_25_0
 + xp_26_0 + xp_26_1 + xp_26_2 + xp_27_0 + xp_28_0 + xp_28_1 + xp_29_0
 + xp_30_0 + xp_30_1 + xp_30_2 + xp_31_0 + xp_32_0 + xp_32_1 + xp_33_0
 + xp_34_0 + xp_34_1 + xp_35_0 + xp_36_0 + xp_37_0 + xp_38_0 + xp_38_1
 + xp_39_0 + xp_40_0 + xp_40_1 + xp_40_2 + xp_41_0 + xp_41_1 + xp_42_0
 + xp_42_1 + xp_42_2 + xp_43_0 + xp_44_0 + xp_45_0 + xp_45_1 + xp_46_0
 + xp_47_0 + xp_48_0 + xp_49_0 + xp_50_0 + xp_50_1 + xp_51_0 + xp_52_0
 + xp_53_0 + xp_53_1 + xp_54_0 + xp_55_0 + xp_56_0 + xp_57_0 + xp_57_1
 + xp_58_0 + xp_58_1 + xp_59_0 + xp_60_0 + xp_60_1 + xp_61_0 + xp_61_1
 + xp_62_0 + xp_63_0 + xp_63_1 + xp_64_0 + xp_65_0 + xp_66_0 + xp_67_0
 + xp_67_1 + xp_68_0 + xp_68_1 + xp_69_0 + xp_70_0 + xp_71_0 + xp_72_0
 + xp_73_0 + xp_74_0 + xp_75_0 + xp_76_0 + xp_77_0 + xp_77_1 + xp_77_2
 + xp_78_0 + xp_78_1 + xp_78_2 + xp_78_3 + xp_79_0 + xp_79_1 + xp_80_0
 + xp_80_1 + xp_81_0 + xp_81_1 + xp_81_2 + xp_82_0 + xp_82_1 + xp_83_0
 + xp_83_1 + xp_84_0 + xp_85_0 + xp_85_1 + xp_85_2 + xp_86_0 + xp_86_1
 + xp_87_0 + xp_88_0 + xp_88_1 + xp_89_0 + xp_90_0 + xp_90_1 + xp_91_0
 + xp_91_1 + xp_91_2 + xp_92_0 + xp_93_0 + xp_94_0 + xp_94_1 + xp_94_2
 + xp_95_0 + xp_95_1 + xp_96_0 + xp_97_0 + xp_98_0 + xp_98_1 + xp_98_2
 + xp_99_0 + xp_99_1 + xp_99_2 + xp_100_0 + xp_101_0 + xp_102_0
 + xp_103_0 + xp_104_0 + xp_104_1 + xp_105_0 + xp_105_1 + xp_106_0
 + xp_106_1 + xp_107_0 + xp_108_0 + xp_108_1 + xp_108_2 + xp_109_0
 + xp_109_1 + xp_110_0 + xp_111_0 + xp_111_1 + xp_112_0 + xp_113_0
 + xp_114_0 + xp_115_0 + xp_115_1 + xp_116_0 + xp_116_1 + xp_117_0
 + xp_118_0 + xp_119_0 + xp_119_1 + xp_119_2 + xp_120_0 + xp_121_0
 + xp_122_0 + xp_123_0 + xp_123_1 + xp_124_0 + xp_124_1 + xp_125_0
 + xp_125_1 + xp_126_0 + xp_126_1 + xp_126_2 + xp_127_0 + xp_127_1
 + xp_128_0 + xp_128_1 + xp_128_2 + xp_129_0 + xp_129_1 + xp_130_0
 + xp_131_0 + xp_131_1 + xp_131_2

Subject To
 r_1: + xp_128_2 + xp_128_1 + xp_123_1 + xp_122_0 + xp_121_0 + xp_108_1
 + xp_107_0 + xp_78_3 + xp_67_1 + xp_57_1 + xp_40_2 + xp_40_1 + xp_25_0
 + xp_22_1 + xp_18_2 + xp_18_1 + xp_16_0 + xp_13_2 + xp_13_1 + xp_4_1
 + xp_4_0 <= 39177.1539206196
 r_2: + xp_131_2 + xp_131_1 + xp_127_0 + xp_126_1 + xp_120_0 + xp_94_2
 + xp_94_1 + xp_93_0 + xp_90_1 + xp_85_2 + xp_85_1 + xp_85_0 + xp_77_2
 + xp_77_1 + xp_75_0 + xp_71_0 + xp_66_0 + xp_65_0 + xp_61_1 + xp_55_0
 + xp_52_0 + xp_48_0 + xp_42_2 + xp_42_1 + xp_38_1 + xp_32_0 + xp_28_1
 + xp_28_0 + xp_24_2 + xp_24_0 + xp_19_1 + xp_19_0 + xp_12_1 + xp_1_1
 <= 34975.3694581281
 r_3: + xp_124_1 + xp_114_0 + xp_105_1 + xp_91_2 + xp_85_2 + xp_83_1
 + xp_76_0 + xp_58_1 + xp_41_1 + xp_34_0 + xp_30_2 + xp_26_2 + xp_24_2
 <= 37964.8842777334
 r_4: + xp_119_2 + xp_117_0 + xp_104_1 + xp_95_1 + xp_95_0 + xp_91_1
 + xp_91_0 + xp_88_1 + xp_84_0 + xp_82_1 + xp_81_2 + xp_79_1 + xp_79_0
 + xp_46_0 + xp_43_0 + xp_40_2 + xp_40_1 + xp_40_0 + xp_34_1
 <= 35798.3193277311
 r_5: + xp_130_0 + xp_119_2 + xp_104_1 + xp_99_0 + xp_88_1 + xp_82_1
 + xp_81_2 + xp_7_0 + xp_2_0 <= 37964.8842777334
 r_6: + xp_126_2 + xp_119_0 + xp_114_0 + xp_91_2 + xp_83_1 + xp_83_0
 + xp_81_0 + xp_70_0 + xp_68_1 + xp_58_1 + xp_53_0 + xp_45_0 + xp_34_0
 + xp_32_1 + xp_30_2 + xp_30_1 <= 37964.8842777334
 r_7: + xp_119_1 + xp_111_1 + xp_104_0 + xp_88_0 + xp_82_0 + xp_81_1
 + xp_78_2 + xp_53_1 + xp_50_1 + xp_45_1 + xp_44_0 + xp_27_0 + xp_18_2
 + xp_18_1 + xp_18_0 + xp_4_1 + xp_3_1 <= 35798.3193277311
 r_8: + xp_131_2 + xp_131_1 + xp_127_0 + xp_126_1 + xp_120_0 + xp_118_0
 + xp_103_0 + xp_94_2 + xp_94_1 + xp_90_1 + xp_77_2 + xp_77_1 + xp_71_0
 + xp_61_1 + xp_55_0 + xp_42_2 + xp_42_1 + xp_38_1 + xp_32_0 + xp_24_2
 + xp_24_0 + xp_12_1 + xp_1_1 <= 39177.1539206196
 r_9: + xp_131_0 + xp_127_1 + xp_123_1 + xp_122_0 + xp_108_1 + xp_78_3
 + xp_77_0 + xp_67_1 + xp_57_1 + xp_42_0 + xp_33_0 + xp_32_1 + xp_24_1
 <= 39177.1539206196
 r_10: + xp_111_1 + xp_106_0 + xp_99_0 + xp_98_0 + xp_94_1 + xp_88_1
 + xp_88_0 + xp_85_0 + xp_78_2 + xp_50_1 + xp_26_0 + xp_24_0 + xp_8_0
 + xp_7_0 + xp_4_1 + xp_3_1 + xp_2_0 <= 37964.8842777334
 r_11: + xp_119_0 + xp_112_0 + xp_111_0 + xp_91_2 + xp_81_0 + xp_78_3
 + xp_78_1 + xp_78_0 + xp_59_0 + xp_53_0 + xp_50_0 + xp_49_0 + xp_45_0
 + xp_34_0 + xp_4_0 + xp_3_0 <= 36378.8140472078
 r_12: + xp_129_1 + xp_128_1 + xp_128_0 + xp_123_0 + xp_119_1 + xp_117_0
 + xp_111_1 + xp_108_2 + xp_101_0 + xp_95_0 + xp_91_1 + xp_82_1
 + xp_82_0 + xp_81_1 + xp_80_1 + xp_79_1 + xp_78_2 + xp_78_0 + xp_73_0
 + xp_63_1 + xp_60_1 + xp_50_1 + xp_46_0 + xp_45_1 + xp_44_0 + xp_40_1
 + xp_40_0 + xp_18_1 + xp_18_0 + xp_17_1 + xp_15_0 + xp_14_0 + xp_13_1
 + xp_13_0 + xp_9_0 + xp_4_1 <= 36044.4209413009
 r_13: + xp_129_0 + xp_128_2 + xp_123_1 + xp_119_2 + xp_109_1 + xp_100_0
 + xp_95_1 + xp_91_0 + xp_90_0 + xp_81_2 + xp_80_0 + xp_79_0 + xp_68_0
 + xp_63_0 + xp_60_0 + xp_53_1 + xp_40_2 + xp_34_1 + xp_31_0 + xp_30_0
 + xp_18_2 + xp_17_0 + xp_13_2 + xp_9_1 <= 36378.8140472078
 r_14: + xp_131_2 + xp_131_1 + xp_131_0 + xp_126_2 + xp_125_1 + xp_125_0
 + xp_124_1 + xp_124_0 + xp_115_1 + xp_115_0 + xp_106_1 + xp_99_2
 + xp_99_1 + xp_98_2 + xp_98_1 + xp_94_2 + xp_94_0 + xp_86_1 + xp_86_0
 + xp_85_2 + xp_85_1 + xp_77_2 + xp_77_1 + xp_77_0 + xp_68_1 + xp_65_0
 + xp_58_1 + xp_56_0 + xp_51_0 + xp_41_1 + xp_41_0 + xp_38_1 + xp_38_0
 + xp_35_0 + xp_32_1 + xp_30_2 + xp_30_1 + xp_26_2 + xp_26_1 + xp_24_2
 + xp_24_1 + xp_20_0 + xp_19_1 + xp_19_0 + xp_12_1 + xp_12_0 + xp_2_1
 + xp_0_0 <= 35798.3193277311
 r_15: + xp_131_2 + xp_131_0 + xp_126_2 + xp_125_0 + xp_124_1 + xp_124_0
 + xp_116_0 + xp_115_0 + xp_109_1 + xp_99_2 + xp_98_2 + xp_94_0
 + xp_90_0 + xp_89_0 + xp_86_0 + xp_85_2 + xp_85_1 + xp_77_2 + xp_77_0
 + xp_68_1 + xp_68_0 + xp_65_0 + xp_58_1 + xp_51_0 + xp_42_1 + xp_42_0
 + xp_38_0 + xp_36_0 + xp_32_1 + xp_28_0 + xp_26_2 + xp_26_1 + xp_24_2
 + xp_24_1 + xp_19_1 + xp_12_0 + xp_11_1 + xp_0_0 <= 36044.4209413009
 r_16: + xp_128_0 + xp_123_0 + xp_108_2 + xp_108_0 + xp_78_2 + xp_78_1
 + xp_78_0 + xp_73_0 + xp_67_0 + xp_57_0 + xp_46_0 + xp_44_0 + xp_40_0
 + xp_22_0 + xp_18_0 + xp_13_0 + xp_6_0 <= 36044.4209413009
 r_17: + xp_129_1 + xp_128_1 + xp_126_0 + xp_119_1 + xp_111_1 + xp_109_0
 + xp_97_0 + xp_95_0 + xp_91_1 + xp_81_1 + xp_80_1 + xp_79_1 + xp_63_1
 + xp_62_0 + xp_61_0 + xp_60_1 + xp_47_0 + xp_45_1 + xp_40_1 + xp_22_1
 + xp_18_1 + xp_17_1 + xp_13_1 + xp_9_0 + xp_4_1 + xp_1_0
 <= 34975.3694581281
 r_18: + xp_126_1 + xp_126_0 + xp_106_0 + xp_99_0 + xp_98_0 + xp_94_1
 + xp_92_0 + xp_85_0 + xp_68_0 + xp_58_0 + xp_48_0 + xp_32_0 + xp_30_0
 + xp_26_0 + xp_24_0 + xp_5_0 + xp_2_0 <= 36378.8140472078
 r_19: + xp_131_1 + xp_125_1 + xp_116_1 + xp_115_1 + xp_110_0 + xp_108_2
 + xp_106_1 + xp_99_1 + xp_98_1 + xp_94_2 + xp_86_1 + xp_78_0 + xp_77_1
 + xp_56_0 + xp_42_2 + xp_38_1 + xp_28_1 + xp_19_0 + xp_14_0 + xp_12_1
 + xp_11_0 + xp_3_0 + xp_2_1 <= 36378.8140472078
 r_20: + xp_129_0 + xp_128_2 + xp_123_1 + xp_119_2 + xp_119_0 + xp_112_0
 + xp_111_0 + xp_108_1 + xp_108_0 + xp_107_0 + xp_95_1 + xp_91_2
 + xp_91_0 + xp_81_2 + xp_81_0 + xp_80_0 + xp_79_0 + xp_78_3 + xp_78_1
 + xp_69_0 + xp_64_0 + xp_63_0 + xp_60_0 + xp_50_0 + xp_49_0 + xp_45_0
 + xp_40_2 + xp_18_2 + xp_17_0 + xp_14_1 + xp_13_2 + xp_10_0 + xp_9_1
 + xp_4_0 <= 34975.3694581281
 r_21: + xp_124_1 + xp_113_0 + xp_105_1 + xp_99_2 + xp_99_1 + xp_86_1
 + xp_86_0 + xp_85_2 + xp_83_1 + xp_77_2 + xp_77_1 + xp_77_0 + xp_65_0
 + xp_58_1 + xp_41_1 + xp_38_1 + xp_38_0 + xp_30_2 + xp_26_2 + xp_24_2
 + xp_20_0 + xp_2_1 + xp_0_0 <= 35798.3193277311
 r_22: + xp_126_2 + xp_124_0 + xp_106_1 + xp_105_0 + xp_98_2 + xp_98_1
 + xp_94_2 + xp_94_0 + xp_85_1 + xp_83_0 + xp_68_1 + xp_41_0 + xp_32_1
 + xp_30_1 + xp_26_1 + xp_24_1 <= 35798.3193277311
 r_23: + xp_128_2 + xp_128_1 + xp_128_0 + xp_119_2 + xp_119_1 + xp_117_0
 + xp_111_1 + xp_104_1 + xp_104_0 + xp_100_0 + xp_95_1 + xp_95_0
 + xp_91_1 + xp_91_0 + xp_84_0 + xp_82_1 + xp_82_0 + xp_81_2 + xp_81_1
 + xp_80_1 + xp_80_0 + xp_79_1 + xp_79_0 + xp_78_2 + xp_73_0 + xp_60_1
 + xp_60_0 + xp_53_1 + xp_50_1 + xp_46_0 + xp_45_1 + xp_44_0 + xp_40_2
 + xp_40_1 + xp_40_0 + xp_34_1 + xp_21_0 + xp_18_2 + xp_18_1 + xp_18_0
 + xp_15_0 + xp_9_1 + xp_9_0 + xp_4_1 + xp_3_1 <= 35798.3193277311
 r_24: + xp_128_0 + xp_126_1 + xp_103_0 + xp_94_2 + xp_94_1 + xp_90_1
 + xp_61_1 + xp_40_0 + xp_39_0 + xp_38_1 + xp_22_0 + xp_18_0 + xp_13_0
 + xp_12_1 + xp_1_1 <= 39177.1539206196
 r_25: + xp_131_0 + xp_127_1 + xp_126_2 + xp_126_0 + xp_94_0 + xp_90_0
 + xp_89_0 + xp_77_0 + xp_74_0 + xp_61_0 + xp_42_0 + xp_38_0 + xp_32_1
 + xp_24_1 + xp_12_0 + xp_1_0 <= 36044.4209413009
 r_26: + xp_128_2 + xp_128_1 + xp_123_1 + xp_121_0 + xp_112_0 + xp_108_1
 + xp_107_0 + xp_81_2 + xp_81_1 + xp_81_0 + xp_79_1 + xp_79_0 + xp_78_3
 + xp_67_1 + xp_64_0 + xp_60_1 + xp_60_0 + xp_57_1 + xp_47_0 + xp_40_2
 + xp_40_1 + xp_37_0 + xp_29_0 + xp_25_0 + xp_22_1 + xp_18_2 + xp_18_1
 + xp_17_1 + xp_17_0 + xp_13_2 + xp_13_1 + xp_4_1 + xp_4_0
 <= 34975.3694581281
 r_27: + xp_131_2 + xp_127_0 + xp_125_0 + xp_116_0 + xp_115_0 + xp_108_0
 + xp_99_2 + xp_98_2 + xp_86_0 + xp_85_2 + xp_85_1 + xp_78_1 + xp_77_2
 + xp_72_0 + xp_67_0 + xp_65_0 + xp_58_1 + xp_57_0 + xp_52_0 + xp_50_0
 + xp_42_1 + xp_28_0 + xp_26_2 + xp_26_1 + xp_24_2 + xp_23_0 + xp_19_1
 + xp_14_1 + xp_11_1 <= 34975.3694581281
 r_28: + xp_131_1 + xp_126_1 + xp_126_0 + xp_125_1 + xp_120_0 + xp_116_1
 + xp_115_1 + xp_109_0 + xp_99_1 + xp_99_0 + xp_98_1 + xp_98_0 + xp_96_0
 + xp_94_2 + xp_94_1 + xp_92_0 + xp_90_1 + xp_86_1 + xp_85_0 + xp_77_1
 + xp_75_0 + xp_58_0 + xp_54_0 + xp_48_0 + xp_42_2 + xp_38_1 + xp_32_0
 + xp_28_1 + xp_26_0 + xp_24_0 + xp_19_0 + xp_12_1 + xp_11_0
 <= 34975.3694581281
 r_29: + xp_129_1 + xp_129_0 + xp_95_1 + xp_95_0 + xp_93_0 + xp_87_0
 + xp_71_0 + xp_62_0 + xp_49_0 + xp_45_1 + xp_45_0 + xp_10_0 + xp_9_1
 + xp_9_0 + xp_1_1 + xp_1_0 <= 34975.3694581281
 r_30: + xp_125_1 + xp_125_0 + xp_121_0 + xp_102_0 + xp_99_2 + xp_99_1
 + xp_99_0 + xp_96_0 + xp_92_0 + xp_57_1 + xp_57_0 + xp_37_0 + xp_26_2
 + xp_26_1 + xp_26_0 + xp_23_0 + xp_11_1 + xp_11_0 <= 34975.3694581281

Bounds
 0 <= xp_0_0 <= 233.960486491859
 0 <= xp_1_0 <= 90.5126463103979
 0 <= xp_1_1 <= 90.5126463103979
 0 <= xp_2_0 <= 19.0065665236636
 0 <= xp_2_1 <= 95.0328326183179
 0 <= xp_3_0 <= 60.2546280853335
 0 <= xp_3_1 <= 120.509256170667
 0 <= xp_4_0 <= 651.832649632462
 0 <= xp_4_1 <= 130.366529926492
 0 <= xp_5_0 <= 1074.19232303539
 0 <= xp_6_0 <= 1776.72730342295
 0 <= xp_7_0 <= 632.869651169598
 0 <= xp_8_0 <= 1496.9550010007
 0 <= xp_9_0 <= 71.5387558323337
 0 <= xp_9_1 <= 35.7693779161669
 0 <= xp_10_0 <= 54.3729398774376
 0 <= xp_11_0 <= 20.5859087276356
 0 <= xp_11_1 <= 20.5859087276356
 0 <= xp_12_0 <= 1708.03136355777
 0 <= xp_12_1 <= 341.606272711553
 0 <= xp_13_0 <= 83.2803482177259
 0 <= xp_13_1 <= 124.920522326589
 0 <= xp_13_2 <= 41.640174108863
 0 <= xp_14_0 <= 72.6933094435133
 0 <= xp_14_1 <= 145.386618887027
 0 <= xp_15_0 <= 502.8189896839
 0 <= xp_16_0 <= 2618.59294224645
 0 <= xp_17_0 <= 147.270937516593
 0 <= xp_17_1 <= 147.270937516593
 0 <= xp_18_0 <= 118.6576135867
 0 <= xp_18_1 <= 177.98642038005
 0 <= xp_18_2 <= 59.3288067933499
 0 <= xp_19_0 <= 524.84264441791
 0 <= xp_19_1 <= 524.84264441791
 0 <= xp_20_0 <= 127.175169472949
 0 <= xp_21_0 <= 272.191459843182
 0 <= xp_22_0 <= 407.252448320792
 0 <= xp_22_1 <= 814.504896641583
 0 <= xp_23_0 <= 51.5627999558873
 0 <= xp_24_0 <= 225.203306271214
 0 <= xp_24_1 <= 56.3008265678035
 0 <= xp_24_2 <= 56.3008265678035
 0 <= xp_25_0 <= 573.98741699944
 0 <= xp_26_0 <= 10.1513581662203
 0 <= xp_26_1 <= 2.53783954155508
 0 <= xp_26_2 <= 2.53783954155508
 0 <= xp_27_0 <= 335.125523667668
 0 <= xp_28_0 <= 441.344455896188
 0 <= xp_28_1 <= 220.672227948094
 0 <= xp_29_0 <= 2427.83018803703
 0 <= xp_30_0 <= 60.6249566021269
 0 <= xp_30_1 <= 90.9374349031904
 0 <= xp_30_2 <= 30.3124783010635
 0 <= xp_31_0 <= 189.063599838253
 0 <= xp_32_0 <= 1860.73741665906
 0 <= xp_32_1 <= 372.147483331813
 0 <= xp_33_0 <= 7994.3252600809
 0 <= xp_34_0 <= 84.4566858593051
 0 <= xp_34_1 <= 422.283429296525
 0 <= xp_35_0 <= 258.924985329817
 0 <= xp_36_0 <= 316.3694734936
 0 <= xp_37_0 <= 361.919881059194
 0 <= xp_38_0 <= 276.766106227101
 0 <= xp_38_1 <= 55.3532212454202
 0 <= xp_39_0 <= 1560.73864201077
 0 <= xp_40_0 <= 280.77436782063
 0 <= xp_40_1 <= 421.161551730945
 0 <= xp_40_2 <= 140.387183910315
 0 <= xp_41_0 <= 52.8480577494646
 0 <= xp_41_1 <= 26.4240288747323
 0 <= xp_42_0 <= 225.268658362413
 0 <= xp_42_1 <= 75.0895527874709
 0 <= xp_42_2 <= 150.179105574942
 0 <= xp_43_0 <= 488.11476916416
 0 <= xp_44_0 <= 454.915906835148
 0 <= xp_45_0 <= 21.1087254572264
 0 <= xp_45_1 <= 21.1087254572264
 0 <= xp_46_0 <= 1592.69581460701
 0 <= xp_47_0 <= 871.927600774967
 0 <= xp_48_0 <= 2883.26891160177
 0 <= xp_49_0 <= 87.3757459328534
 0 <= xp_50_0 <= 389.040998906714
 0 <= xp_50_1 <= 389.040998906714
 0 <= xp_51_0 <= 703.90737430274
 0 <= xp_52_0 <= 657.115277004369
 0 <= xp_53_0 <= 125.606719284177
 0 <= xp_53_1 <= 62.8033596420884
 0 <= xp_54_0 <= 3664.09569724554
 0 <= xp_55_0 <= 1175.74947275839
 0 <= xp_56_0 <= 95.0219406031181
 0 <= xp_57_0 <= 102.210670634991
 0 <= xp_57_1 <= 102.210670634991
 0 <= xp_58_0 <= 3758.61660514947
 0 <= xp_58_1 <= 751.723321029894
 0 <= xp_59_0 <= 10559.6562480003
 0 <= xp_60_0 <= 448.315345624065
 0 <= xp_60_1 <= 224.157672812032
 0 <= xp_61_0 <= 1200.41988718595
 0 <= xp_61_1 <= 1200.41988718595
 0 <= xp_62_0 <= 130.181365668096
 0 <= xp_63_0 <= 87.1796896592569
 0 <= xp_63_1 <= 43.5898448296284
 0 <= xp_64_0 <= 986.489816646539
 0 <= xp_65_0 <= 518.242083206827
 0 <= xp_66_0 <= 1666.6743818441
 0 <= xp_67_0 <= 200.696272071648
 0 <= xp_67_1 <= 200.696272071648
 0 <= xp_68_0 <= 487.221623917776
 0 <= xp_68_1 <= 974.443247835552
 0 <= xp_69_0 <= 1704.97070728662
 0 <= xp_70_0 <= 626.661202505708
 0 <= xp_71_0 <= 70.3188501299553
 0 <= xp_72_0 <= 594.31191736228
 0 <= xp_73_0 <= 915.713501878192
 0 <= xp_74_0 <= 945.710111738461
 0 <= xp_75_0 <= 1750.06365021382
 0 <= xp_76_0 <= 1708.49972021136
 0 <= xp_77_0 <= 378.432176102102
 0 <= xp_77_1 <= 94.6080440255254
 0 <= xp_77_2 <= 94.6080440255254
 0 <= xp_78_0 <= 4628.76880744687
 0 <= xp_78_1 <= 4628.76880744687
 0 <= xp_78_2 <= 13886.3064223406
 0 <= xp_78_3 <= 4628.76880744687
 0 <= xp_79_0 <= 704.844087609924
 0 <= xp_79_1 <= 352.422043804962
 0 <= xp_80_0 <= 149.17704017656
 0 <= xp_80_1 <= 74.5885200882798
 0 <= xp_81_0 <= 129.462492664908
 0 <= xp_81_1 <= 86.3083284432723
 0 <= xp_81_2 <= 43.1541642216362
 0 <= xp_82_0 <= 181.787733684782
 0 <= xp_82_1 <= 36.3575467369565
 0 <= xp_83_0 <= 416.728501544624
 0 <= xp_83_1 <= 83.3457003089247
 0 <= xp_84_0 <= 883.364216734764
 0 <= xp_85_0 <= 135.213476690407
 0 <= xp_85_1 <= 202.82021503561
 0 <= xp_85_2 <= 67.6067383452033
 0 <= xp_86_0 <= 141.81403790149
 0 <= xp_86_1 <= 28.362807580298
 0 <= xp_87_0 <= 140.245587712718
 0 <= xp_88_0 <= 351.757630877774
 0 <= xp_88_1 <= 70.3515261755548
 0 <= xp_89_0 <= 2204.58744450178
 0 <= xp_90_0 <= 17954.0166348302
 0 <= xp_90_1 <= 3590.80332696604
 0 <= xp_91_0 <= 900.53003268966
 0 <= xp_91_1 <= 1350.79504903449
 0 <= xp_91_2 <= 450.26501634483
 0 <= xp_92_0 <= 66.3977246580247
 0 <= xp_93_0 <= 129.527844756107
 0 <= xp_94_0 <= 156.932154998822
 0 <= xp_94_1 <= 39.2330387497056
 0 <= xp_94_2 <= 39.2330387497056
 0 <= xp_95_0 <= 40.6054326648813
 0 <= xp_95_1 <= 20.3027163324406
 0 <= xp_96_0 <= 114.627567962771
 0 <= xp_97_0 <= 523.862363049927
 0 <= xp_98_0 <= 71.0377231331426
 0 <= xp_98_1 <= 47.3584820887617
 0 <= xp_98_2 <= 23.6792410443809
 0 <= xp_99_0 <= 2.71211178475199
 0 <= xp_99_1 <= 10.848447139008
 0 <= xp_99_2 <= 2.71211178475199
 0 <= xp_100_0 <= 499.878145579952
 0 <= xp_101_0 <= 248.337946555604
 0 <= xp_102_0 <= 74.5013839666813
 0 <= xp_103_0 <= 1430.94938888987
 0 <= xp_104_0 <= 109.246912454066
 0 <= xp_104_1 <= 21.8493824908133
 0 <= xp_105_0 <= 1200.84467577874
 0 <= xp_105_1 <= 240.168935155749
 0 <= xp_106_0 <= 20.5859087276356
 0 <= xp_106_1 <= 20.5859087276356
 0 <= xp_107_0 <= 447.008303800088
 0 <= xp_108_0 <= 140.64859227511
 0 <= xp_108_1 <= 562.594369100442
 0 <= xp_108_2 <= 140.64859227511
 0 <= xp_109_0 <= 800.672037337828
 0 <= xp_109_1 <= 160.134407467566
 0 <= xp_110_0 <= 132.403336768856
 0 <= xp_111_0 <= 2422.60202074112
 0 <= xp_111_1 <= 484.520404148224
 0 <= xp_112_0 <= 4652.87283708404
 0 <= xp_113_0 <= 422.828030056516
 0 <= xp_114_0 <= 2383.26006183942
 0 <= xp_115_0 <= 73.1943421427044
 0 <= xp_115_1 <= 146.388684285409
 0 <= xp_116_0 <= 52.9134098406634
 0 <= xp_116_1 <= 105.826819681327
 0 <= xp_117_0 <= 1931.48105538181
 0 <= xp_118_0 <= 3135.5933357205
 0 <= xp_119_0 <= 31.2056235474477
 0 <= xp_119_1 <= 20.8037490316318
 0 <= xp_119_2 <= 10.4018745158159
 0 <= xp_120_0 <= 2156.48830537943
 0 <= xp_121_0 <= 75.0895527874709
 0 <= xp_122_0 <= 2260.98629920638
 0 <= xp_123_0 <= 425.605493932467
 0 <= xp_123_1 <= 85.1210987864933
 0 <= xp_124_0 <= 114.039399141981
 0 <= xp_124_1 <= 22.8078798283963
 0 <= xp_125_0 <= 13.56055892376
 0 <= xp_125_1 <= 13.56055892376
 0 <= xp_126_0 <= 4204.21983898878
 0 <= xp_126_1 <= 12612.6595169664
 0 <= xp_126_2 <= 8408.43967797757
 0 <= xp_127_0 <= 382.222597391635
 0 <= xp_127_1 <= 191.111298695817
 0 <= xp_128_0 <= 67.2799778892091
 0 <= xp_128_1 <= 201.839933667627
 0 <= xp_128_2 <= 134.559955778418
 0 <= xp_129_0 <= 24.3436539715691
 0 <= xp_129_1 <= 24.3436539715691
 0 <= xp_130_0 <= 401.196487869699
 0 <= xp_131_0 <= 381.558184464446
 0 <= xp_131_1 <= 254.372122976298
 0 <= xp_131_2 <= 127.186061488149

End
